NAME          LPA2
ROWS
 N  COST
 L  R01
 L  R02
COLUMNS
    X01       R01                 1.   R02                 1.
    X01       COST               -.5   
    X02       R01                 2.   R02                .25
    X02       COST              -.25   
RHS
    B         R01                12.   R02                 6.
ENDATA